c colouring generated by benchmark framework
p edge 125 3891
v 1 1
v 2 17
v 3 6
v 4 7
v 5 15
v 6 4
v 7 8
v 8 19
v 9 11
v 10 5
v 11 20
v 12 12
v 13 5
v 14 10
v 15 11
v 16 6
v 17 0
v 18 2
v 19 0
v 20 6
v 21 0
v 22 16
v 23 1
v 24 4
v 25 19
v 26 21
v 27 10
v 28 12
v 29 9
v 30 3
v 31 21
v 32 13
v 33 24
v 34 25
v 35 22
v 36 7
v 37 12
v 38 15
v 39 4
v 40 18
v 41 8
v 42 8
v 43 25
v 44 3
v 45 9
v 46 6
v 47 2
v 48 11
v 49 12
v 50 18
v 51 23
v 52 1
v 53 5
v 54 8
v 55 3
v 56 24
v 57 13
v 58 2
v 59 16
v 60 12
v 61 14
v 62 5
v 63 6
v 64 4
v 65 26
v 66 20
v 67 21
v 68 10
v 69 13
v 70 19
v 71 4
v 72 6
v 73 12
v 74 13
v 75 21
v 76 23
v 77 16
v 78 7
v 79 1
v 80 20
v 81 14
v 82 18
v 83 17
v 84 3
v 85 10
v 86 14
v 87 9
v 88 17
v 89 0
v 90 2
v 91 7
v 92 16
v 93 14
v 94 22
v 95 0
v 96 0
v 97 15
v 98 6
v 99 0
v 100 26
v 101 8
v 102 1
v 103 3
v 104 8
v 105 22
v 106 5
v 107 9
v 108 4
v 109 7
v 110 2
v 111 10
v 112 11
v 113 9
v 114 22
v 115 4
v 116 3
v 117 10
v 118 1
v 119 15
v 120 7
v 121 14
v 122 15
v 123 9
v 124 14
v 125 13
